50
400
311
306
299
291
290
285
283
283
279
278
273
270
270
263
260
234
229
225
216
212
202
197
196
191
185
184
184
183
181
179
176
175
172
153
152
149
148
136
127
121
121
114
107
105
100
97
88
83
81
80
